p cnf 12 50 
-10 3 2 0
-1 -10 12 0
11 5 6 0
5 10 -8 0
4 -2 1 0
3 -2 -5 0
9 -7 10 0
9 12 7 0
6 4 -2 0
-12 -11 10 0
8 12 6 0
-2 8 7 0
-6 -9 10 0
-1 6 5 0
-10 -12 3 0
8 -9 7 0
-5 -10 7 0
-4 9 3 0
-6 -11 -3 0
8 11 12 0
6 -1 -7 0
-11 -4 -10 0
8 12 5 0
11 -5 7 0
-8 -11 -7 0
-8 2 7 0
1 12 9 0
-7 -8 -4 0
-12 10 4 0
-4 -10 -5 0
-12 9 1 0
7 -10 1 0
-11 -9 -12 0
-1 7 9 0
7 5 11 0
-7 9 10 0
1 -6 8 0
-1 -8 11 0
-2 4 7 0
-6 12 -3 0
-7 5 8 0
12 -5 10 0
-2 -9 -3 0
-7 -11 12 0
8 2 9 0
-7 3 2 0
4 5 10 0
1 12 10 0
3 -8 -12 0
-9 11 2 0
